\* Problem: Unknown *\

Maximize
 obj: + xp_0_0 + xp_0_1 + xp_0_2 + xp_0_3 + xp_0_4 + xp_0_5 + xp_0_6
 + xp_0_7 + xp_0_8 + xp_1_0 + xp_1_1 + xp_2_0 + xp_2_1 + xp_2_2 + xp_2_3
 + xp_2_4 + xp_3_0 + xp_3_1 + xp_3_2 + xp_4_0 + xp_5_0 + xp_5_1 + xp_5_2
 + xp_6_0 + xp_6_1 + xp_6_2 + xp_7_0 + xp_7_1 + xp_8_0 + xp_8_1 + xp_9_0
 + xp_10_0 + xp_10_1 + xp_11_0 + xp_11_1 + xp_11_2 + xp_11_3 + xp_12_0
 + xp_13_0 + xp_13_1 + xp_14_0 + xp_14_1 + xp_15_0 + xp_15_1 + xp_16_0
 + xp_16_1 + xp_17_0 + xp_17_1 + xp_17_2 + xp_17_3 + xp_17_4 + xp_17_5
 + xp_17_6 + xp_18_0 + xp_18_1 + xp_18_2 + xp_19_0 + xp_19_1 + xp_19_2
 + xp_19_3 + xp_19_4 + xp_20_0 + xp_20_1 + xp_20_2 + xp_20_3 + xp_21_0
 + xp_21_1 + xp_21_2 + xp_21_3 + xp_21_4 + xp_22_0 + xp_22_1 + xp_22_2
 + xp_22_3 + xp_22_4 + xp_22_5 + xp_23_0 + xp_23_1 + xp_23_2 + xp_23_3
 + xp_23_4 + xp_23_5

Subject To
 r_1: 0 xp_0_0 <= 29.2225609756098
 r_2: + xp_22_2 + xp_6_2 + xp_5_2 + xp_2_3 <= 28.6290322580645
 r_3: + xp_23_4 + xp_21_2 + xp_18_2 + xp_15_1 <= 30
 r_4: + xp_17_1 + xp_15_0 + xp_0_7 <= 30
 r_5: + xp_18_0 <= 27.5681198910082
 r_6: + xp_18_1 <= 30
 r_7: + xp_20_3 <= 29.2225609756098
 r_8: + xp_23_2 + xp_22_5 + xp_11_2 + xp_5_1 + xp_3_2 + xp_2_2
 <= 28.6290322580645
 r_9: + xp_23_5 + xp_11_1 + xp_6_1 + xp_3_1 <= 30
 r_10: + xp_3_0 <= 30
 r_11: + xp_18_1 + xp_11_3 + xp_0_6 <= 27.5681198910082
 r_12: + xp_11_0 <= 30
 r_13: 0 xp_0_0 <= 30
 r_14: + xp_21_1 + xp_14_0 + xp_0_1 <= 28.6290322580645
 r_15: + xp_21_0 + xp_19_3 <= 29.2225609756098
 r_16: + xp_22_1 + xp_21_3 + xp_19_4 + xp_0_5 + xp_0_3 + xp_0_2
 <= 29.2225609756098
 r_17: + xp_0_0 <= 27.5681198910082
 r_18: + xp_21_2 + xp_4_0 + xp_0_7 <= 29.2225609756098
 r_19: + xp_19_0 <= 29.2225609756098
 r_20: + xp_21_4 + xp_19_2 + xp_19_1 + xp_14_1 + xp_0_8 + xp_0_6
 + xp_0_4 <= 29.2225609756098
 r_21: + xp_20_1 <= 28.6290322580645
 r_22: + xp_21_1 + xp_7_1 <= 28.6290322580645
 r_23: + xp_22_5 + xp_22_3 + xp_22_2 + xp_17_6 <= 28.6290322580645
 r_24: + xp_23_3 + xp_23_2 + xp_17_3 + xp_6_2 + xp_3_2 + xp_0_8
 <= 29.7154017857143
 r_25: 0 xp_0_0 <= 28.6290322580645
 r_26: + xp_0_4 + xp_0_1 <= 27.5681198910082
 r_27: + xp_11_2 <= 28.6290322580645
 r_28: + xp_19_2 + xp_10_1 <= 28.6290322580645
 r_29: + xp_20_2 <= 29.2225609756098
 r_30: + xp_2_0 <= 28.6290322580645
 r_31: + xp_23_5 + xp_23_4 + xp_18_2 + xp_15_1 + xp_6_1 + xp_3_1
 + xp_2_4 <= 29.7154017857143
 r_32: + xp_2_1 <= 30
 r_33: + xp_11_1 + xp_2_3 <= 30
 r_34: + xp_19_3 + xp_2_2 <= 30
 r_35: 0 xp_0_0 <= 29.2225609756098
 r_36: + xp_9_0 <= 28.6290322580645
 r_37: + xp_21_3 + xp_13_1 + xp_8_1 + xp_0_3 <= 29.7154017857143
 r_38: + xp_1_1 <= 30
 r_39: + xp_19_4 + xp_17_6 + xp_17_2 + xp_0_5 <= 30
 r_40: + xp_0_2 <= 27.5681198910082
 r_41: + xp_12_0 + xp_2_4 <= 29.7154017857143
 r_42: + xp_21_3 <= 29.7154017857143
 r_43: + xp_16_0 <= 29.7154017857143
 r_44: + xp_23_5 + xp_23_4 + xp_23_3 + xp_23_2 + xp_23_1 + xp_16_1
 <= 29.7154017857143
 r_45: + xp_17_4 + xp_17_3 + xp_15_1 + xp_3_2 + xp_3_1
 <= 29.7154017857143
 r_46: + xp_18_2 + xp_0_8 + xp_0_3 <= 27.5681198910082
 r_47: + xp_22_4 + xp_16_1 + xp_13_1 <= 30
 r_48: + xp_13_0 <= 29.7154017857143
 r_49: + xp_17_5 <= 30
 r_50: 0 xp_0_0 <= 27.5681198910082
 r_51: + xp_8_1 + xp_1_1 <= 30
 r_52: + xp_8_0 <= 29.7154017857143
 r_53: + xp_1_0 <= 30
 r_54: + xp_0_7 + xp_0_5 <= 27.5681198910082
 r_55: 0 xp_0_0 <= 30
 r_56: + xp_19_4 <= 30
 r_57: + xp_22_1 <= 27.5681198910082
 r_58: + xp_23_3 + xp_22_3 + xp_17_6 + xp_17_3 + xp_5_0
 <= 27.5681198910082
 r_59: + xp_22_0 + xp_17_2 <= 27.5681198910082
 r_60: + xp_23_1 + xp_17_4 + xp_6_0 <= 27.5681198910082
 r_61: + xp_23_0 + xp_22_4 + xp_17_5 <= 27.5681198910082
 r_62: + xp_17_0 <= 27.5681198910082
 r_63: + xp_23_4 + xp_22_2 + xp_17_1 + xp_11_3 + xp_6_2 + xp_5_2
 <= 27.5681198910082
 r_64: + xp_23_5 + xp_23_2 + xp_22_5 + xp_6_1 + xp_5_1
 <= 27.5681198910082
 r_65: + xp_20_1 + xp_19_2 + xp_14_1 + xp_10_1 + xp_7_1 + xp_2_1
 + xp_0_8 + xp_0_4 <= 28.6290322580645
 r_66: + xp_21_4 + xp_20_2 + xp_7_0 <= 30
 r_67: + xp_20_3 + xp_19_1 + xp_10_0 + xp_0_6 <= 30
 r_68: + xp_20_0 <= 29.2225609756098

Bounds
 0 <= xp_0_0 <= 28.4106285218198
 0 <= xp_0_1 <= 13.5596021195883
 0 <= xp_0_2 <= 11.0265051455186
 0 <= xp_0_3 <= 2.75662628637966
 0 <= xp_0_4 <= 1.68873131604647
 0 <= xp_0_5 <= 2.75662628637966
 0 <= xp_0_6 <= 0.844365658023234
 0 <= xp_0_7 <= 0.844365658023234
 0 <= xp_0_8 <= 1.68873131604647
 0 <= xp_1_0 <= 20.5546460730756
 0 <= xp_1_1 <= 15.0413935003163
 0 <= xp_2_0 <= 23.5596278481003
 0 <= xp_2_1 <= 0.753308778531542
 0 <= xp_2_2 <= 2.75662628637966
 0 <= xp_2_3 <= 6.52317017903736
 0 <= xp_2_4 <= 1.50661755706308
 0 <= xp_3_0 <= 26.3245295265917
 0 <= xp_3_1 <= 4.77648355194605
 0 <= xp_3_2 <= 1.5148929491748
 0 <= xp_4_0 <= 26.4900759615939
 0 <= xp_5_0 <= 13.245037980797
 0 <= xp_5_1 <= 5.29801519231879
 0 <= xp_5_2 <= 7.94702278847818
 0 <= xp_6_0 <= 19.0728546923476
 0 <= xp_6_1 <= 2.38410683654346
 0 <= xp_6_2 <= 2.38410683654346
 0 <= xp_7_0 <= 18.2781524134998
 0 <= xp_7_1 <= 4.56953810337496
 0 <= xp_8_0 <= 18.4768279832118
 0 <= xp_8_1 <= 2.05298088702353
 0 <= xp_9_0 <= 19.0397420973956
 0 <= xp_10_0 <= 15.2317936779165
 0 <= xp_10_1 <= 3.80794841947913
 0 <= xp_11_0 <= 24.8096365774169
 0 <= xp_11_1 <= 13.7831314318983
 0 <= xp_11_2 <= 11.0265051455186
 0 <= xp_11_3 <= 5.51325257275931
 0 <= xp_12_0 <= 17.8808012740759
 0 <= xp_13_0 <= 15.6457011148164
 0 <= xp_13_1 <= 1.7384112349796
 0 <= xp_14_0 <= 9.93377848559773
 0 <= xp_14_1 <= 6.62251899039849
 0 <= xp_15_0 <= 14.7516610511126
 0 <= xp_15_1 <= 1.63907345012363
 0 <= xp_16_0 <= 14.1556343419768
 0 <= xp_16_1 <= 1.57284826021964
 0 <= xp_17_0 <= 27.5910835268791
 0 <= xp_17_1 <= 4.60265069832695
 0 <= xp_17_2 <= 6.44867511027424
 0 <= xp_17_3 <= 1.84602441194729
 0 <= xp_17_4 <= 1.84602441194729
 0 <= xp_17_5 <= 1.84602441194729
 0 <= xp_17_6 <= 1.84602441194729
 0 <= xp_18_0 <= 22.557947041166
 0 <= xp_18_1 <= 15.4304802741336
 0 <= xp_18_2 <= 6.05132397085033
 0 <= xp_19_0 <= 29.1639428136039
 0 <= xp_19_1 <= 6.39071979922939
 0 <= xp_19_2 <= 1.59767994980735
 0 <= xp_19_3 <= 4.79303984942205
 0 <= xp_19_4 <= 1.59767994980735
 0 <= xp_20_0 <= 27.8394335022716
 0 <= xp_20_1 <= 4.5446953872821
 0 <= xp_20_2 <= 7.30132167366176
 0 <= xp_20_3 <= 3.02979692485474
 0 <= xp_21_0 <= 24.6275007654232
 0 <= xp_21_1 <= 3.99833757057423
 0 <= xp_21_2 <= 2.66555838038282
 0 <= xp_21_3 <= 8.26987885913897
 0 <= xp_21_4 <= 1.33277919019141
 0 <= xp_22_0 <= 21.6308164355205
 0 <= xp_22_1 <= 2.33443243086289
 0 <= xp_22_2 <= 2.75662628637966
 0 <= xp_22_3 <= 7.84768500362221
 0 <= xp_22_4 <= 2.33443243086289
 0 <= xp_22_5 <= 2.33443243086289
 0 <= xp_23_0 <= 23.9652488663834
 0 <= xp_23_1 <= 7.84768500362221
 0 <= xp_23_2 <= 2.33443243086289
 0 <= xp_23_3 <= 1.16721621543145
 0 <= xp_23_4 <= 1.16721621543145
 0 <= xp_23_5 <= 2.75662628637966

End
